COLUMNS

passenger_count
pickup_ID
dropoff_ID
request_time_sec
pickup_district
dropoff_district
LDuals
IDuals
vehicle_ID
pick_position
drop_position

REQUESTS_INFO
1      923       626       29456     290       189       209       209       1         1         2         
1      927       837       29463     290       290       159       159       22        1         2         
1      455       576       29459     52        189       161       161       34        1         2         
1      790       605       29465     290       189       136       136       65        1         3         
3      433       598       29448     52        189       190       190       67        1         2         
3      1001      923       29400     291       290       284       284       73        1         2         
1      354       558       29410     119       189       216       216       105       1         2         
1      837       849       29403     290       291       208       208       127       1         3         
3      794       828       29386     290       291       219       219       172       1         2         
1      179       581       29417     178       189       201       201       199       1         3         
1      812       604       29446     290       189       167       167       229       1         2         
3      861       916       29418     290       291       256       256       237       1         2         
1      950       883       29488     290       290       150       150       244       1         2         
1      662       504       29457     131       52        136       136       246       1         2         
1      529       720       29480     189       290       131       131       291       1         2         
1      792       693       29444     290       280       167       167       323       1         2         
3      884       971       29471     290       290       137.5     137.5     324       1         2         
4      917       662       29373     291       131       299       299       355       1         2         
3      480       325       29432     52        299       194       194       363       1         2         
2      862       698       29450     290       189       197       197       411       1         3         
2      1168      982       29430     291       291       229       229       452       1         2         
2      476       505       29430     52        52        215       215       490       1         2         
1      863       624       29428     290       189       211       211       500       1         2         
1      1109      803       29397     291       291       326       326       517       1         3         
1      916       717       29372     291       189       275       275       529       1         2         
1      218       157       29466     87        54        189       189       537       1         3         
1      814       535       29434     290       189       175       175       550       1         3         
2      873       674       29442     291       189       188       188       566       1         4         
2      1140      1192      29461     84        129       222       222       631       1         3         
2      556       647       29480     199       280       105       105       637       1         2         
3      980       805       29250     291       291       447       447       669       1         2         
1      917       938       29476     291       291       144       144       673       1         2         
1      498       742       29437     52        290       212       212       718       1         2         
1      478       545       29477     52        52        109       109       721       1         3         
2      1284      1355      29437     129       129       247       247       740       1         2         
1      1048      675       29414     291       189       257       257       752       1         2         
1      970       529       29481     290       189       183       183       780       1         2         
1      723       576       29466     290       189       122       122       800       1         2         
1      485       575       29444     189       189       136       136       803       1         2         
1      350       604       29484     127       189       166       166       804       1         2         
1      909       605       29476     290       189       166       166       810       1         2         
1      894       857       29474     291       290       183       183       855       1         3         
3      310       371       29431     127       52        187       187       861       1         2         
2      235       443       29452     87        168       154       154       881       1         2         
1      969       789       29469     290       290       113       113       896       1         3         
2      873       1169      29477     291       291       194       194       907       1         3         
2      991       906       29461     290       290       179.5     179.5     909       1         2         
1      1171      1357      29486     192       129       154       154       945       1         3         
1      1210      983       29464     129       291       214       214       945       2         4         
1      824       476       29462     291       52        190       190       950       1         2         
2      655       138       29487     189       57        104       104       957       1         2         
1      201       488       29445     87        199       213       213       959       1         3         
1      1025      1199      29450     291       84        248       248       988       1         2         
3      1225      925       29474     192       290       156       156       994       1         2         
1      643       663       29487     131       131       87        87        1000      1         2         
2      377       726       29462     168       290       112       112       1004      1         2         
1      215       78        29375     178       9         245       245       1021      1         2         
1      804       443       29489     291       168       123       123       1025      1         3         
1      779       948       29466     131       290       178       178       1041      1         3         
2      981       805       29481     291       291       172       172       1054      1         3         
3      888       951       29436     290       290       177       177       1083      1         2         
3      1107      1263      29461     291       192       218       218       1105      1         3         
1      960       559       29473     291       189       166       166       1117      1         4         
1      352       395       29344     119       100       286       286       1128      1         2         
3      1168      982       29430     291       291       229       229       1130      1         3         
1      772       701       29471     290       290       110       110       1159      1         4         
1      772       939       29475     290       291       112       112       1159      2         5         
1      860       602       29479     290       189       176       176       1163      1         2         
1      970       882       29484     290       290       111       111       1203      1         2         
1      458       170       29441     52        286       163       163       1273      1         2         
2      924       1065      29465     290       291       170       170       1289      1         3         
1      804       982       29484     291       291       158       158       1299      1         2         
3      1107      1263      29461     291       192       218       218       1300      1         2         
3      1556      1519      29444     296       296       212       212       1311      1         3         
2      643       388       29466     131       299       152       152       1313      1         2         
1      523       722       29441     52        290       149       149       1314      1         3         
1      950       817       29475     290       290       190       190       1318      1         2         
1      481       441       29465     189       168       140       140       1342      1         2         
3      794       700       29484     290       290       102       102       1343      1         2         
3      995       1265      29464     84        192       244       244       1347      1         2         
1      905       1068      29438     290       291       170       170       1358      1         3         
2      891       803       29364     291       291       260       260       1360      1         2         
3      409       544       29488     52        52        171       171       1372      1         2         
3      1141      1230      29473     84        129       196       196       1374      1         3         
1      1120      917       29463     84        291       300       300       1374      2         4         
1      710       431       29438     131       52        185       185       1382      1         2         
3      1140      1192      29461     84        129       214       214       1393      1         3         
1      597       292       29449     131       87        147       147       1401      1         3         
3      873       674       29442     291       189       229       229       1483      1         2         
1      971       1087      29430     290       291       231       231       1487      1         2         
1      913       1529      29490     291       296       0         0         0         0         0         
1      442       377       29490     168       168       0         0         0         0         0         
3      723       837       29490     290       290       0         0         0         0         0         
2      723       837       29490     290       290       0         0         0         0         0         
1      1047      530       29490     291       189       0         0         0         0         0         
1      438       671       29490     100       280       0         0         0         0         0         
1      662       669       29490     131       280       0         0         0         0         0         
1      46        30        29491     98        9         0         0         0         0         0         
1      667       643       29491     131       131       0         0         0         0         0         
1      236       484       29491     87        189       0         0         0         0         0         
1      306       393       29492     299       52        0         0         0         0         0         
1      749       701       29492     290       290       0         0         0         0         0         
1      842       556       29492     290       199       0         0         0         0         0         
1      523       116       29492     52        9         0         0         0         0         0         
1      632       906       29492     189       290       0         0         0         0         0         
1      251       414       29492     127       100       0         0         0         0         0         
1      134       671       29492     9         280       0         0         0         0         0         
1      1004      626       29493     291       189       0         0         0         0         0         
1      924       627       29493     290       189       0         0         0         0         0         
1      372       600       29493     119       280       0         0         0         0         0         
1      655       904       29493     189       290       0         0         0         0         0         
1      441       628       29494     168       189       0         0         0         0         0         
2      929       489       29494     290       199       0         0         0         0         0         
1      759       693       29494     131       280       0         0         0         0         0         
4      628       743       29494     189       290       0         0         0         0         0         
2      647       628       29495     280       189       0         0         0         0         0         
1      307       353       29495     127       119       0         0         0         0         0         
1      770       652       29495     290       189       0         0         0         0         0         
1      441       669       29496     168       280       0         0         0         0         0         
1      526       765       29496     52        290       0         0         0         0         0         
2      693       527       29496     280       52        0         0         0         0         0         
1      690       431       29496     131       52        0         0         0         0         0         
1      556       504       29496     199       52        0         0         0         0         0         
3      438       600       29496     100       280       0         0         0         0         0         
2      438       600       29496     100       280       0         0         0         0         0         
2      676       582       29497     189       189       0         0         0         0         0         
1      972       815       29498     290       290       0         0         0         0         0         
1      436       529       29498     100       189       0         0         0         0         0         
1      621       721       29498     280       290       0         0         0         0         0         
1      465       232       29499     199       266       0         0         0         0         0         
3      509       721       29499     199       290       0         0         0         0         0         
3      509       721       29499     199       290       0         0         0         0         0         
3      60        415       29499     9         100       0         0         0         0         0         
2      256       504       29499     87        52        0         0         0         0         0         
1      674       604       29499     189       189       0         0         0         0         0         
1      992       782       29499     290       291       0         0         0         0         0         
1      737       675       29500     189       189       0         0         0         0         0         
1      700       926       29500     290       290       0         0         0         0         0         
1      460       193       29500     189       266       0         0         0         0         0         
1      693       676       29500     280       189       0         0         0         0         0         
2      334       555       29500     119       199       0         0         0         0         0         
2      556       507       29500     199       189       0         0         0         0         0         
1      674       859       29501     189       290       0         0         0         0         0         
1      1107      1045      29501     291       291       0         0         0         0         0         
1      980       717       29501     291       189       0         0         0         0         0         
1      652       727       29501     189       290       0         0         0         0         0         
3      527       535       29501     52        189       0         0         0         0         0         
1      1010      755       29502     290       131       0         0         0         0         0         
1      618       873       29502     131       291       0         0         0         0         0         
1      287       287       29502     299       299       0         0         0         0         0         
3      969       794       29502     290       290       0         0         0         0         0         
1      928       696       29502     290       189       0         0         0         0         0         
1      642       578       29502     131       189       0         0         0         0         0         
1      780       616       29503     291       131       0         0         0         0         0         
2      31        499       29503     9         52        0         0         0         0         0         
1      236       412       29503     87        52        0         0         0         0         0         
1      621       624       29503     280       189       0         0         0         0         0         
1      556       738       29503     199       189       0         0         0         0         0         
1      413       651       29503     52        189       0         0         0         0         0         
2      508       694       29504     199       189       0         0         0         0         0         
1      47        629       29504     98        189       0         0         0         0         0         
2      1176      1091      29505     129       291       0         0         0         0         0         
3      1176      1091      29505     129       291       0         0         0         0         0         
1      274       305       29505     87        299       0         0         0         0         0         
1      723       232       29505     290       266       0         0         0         0         0         
2      134       303       29505     9         299       0         0         0         0         0         
1      313       148       29505     87        178       0         0         0         0         0         
1      857       529       29505     290       189       0         0         0         0         0         
1      527       760       29505     52        291       0         0         0         0         0         
1      896       980       29506     291       291       0         0         0         0         0         
1      556       416       29506     199       100       0         0         0         0         0         
1      700       725       29506     290       290       0         0         0         0         0         
3      923       627       29506     290       189       0         0         0         0         0         
1      607       670       29506     189       280       0         0         0         0         0         
1      702       767       29506     290       290       0         0         0         0         0         
1      788       815       29506     290       290       0         0         0         0         0         
1      331       696       29506     127       189       0         0         0         0         0         
3      923       627       29506     290       189       0         0         0         0         0         
1      884       781       29506     290       291       0         0         0         0         0         
2      858       631       29507     290       189       0         0         0         0         0         
3      858       631       29507     290       189       0         0         0         0         0         
2      576       721       29507     189       290       0         0         0         0         0         
1      503       391       29507     52        52        0         0         0         0         0         
3      576       721       29507     189       290       0         0         0         0         0         
1      716       674       29507     189       189       0         0         0         0         0         
1      769       653       29507     290       189       0         0         0         0         0         
1      961       602       29507     291       189       0         0         0         0         0         
2      171       717       29508     286       189       0         0         0         0         0         
3      419       171       29508     168       286       0         0         0         0         0         
1      502       624       29508     52        189       0         0         0         0         0         
1      1013      1180      29508     84        84        0         0         0         0         0         
2      152       324       29508     9         299       0         0         0         0         0         
1      621       834       29508     280       290       0         0         0         0         0         
1      693       617       29508     280       131       0         0         0         0         0         
3      419       171       29508     168       286       0         0         0         0         0         
1      410       624       29510     52        189       0         0         0         0         0         
2      498       840       29510     52        290       0         0         0         0         0         
1      633       551       29510     189       189       0         0         0         0         0         
1      749       924       29510     290       290       0         0         0         0         0         
2      724       772       29511     290       290       0         0         0         0         0         
1      738       575       29511     189       189       0         0         0         0         0         
1      695       905       29511     189       290       0         0         0         0         0         
1      191       430       29511     266       52        0         0         0         0         0         
1      459       291       29511     189       87        0         0         0         0         0         
1      654       558       29512     189       189       0         0         0         0         0         
1      772       722       29512     290       290       0         0         0         0         0         
1      523       134       29512     52        9         0         0         0         0         0         
1      118       673       29512     286       189       0         0         0         0         0         
1      1095      1339      29512     84        129       0         0         0         0         0         
3      485       374       29513     189       119       0         0         0         0         0         
2      485       374       29513     189       119       0         0         0         0         0         
1      624       710       29513     189       131       0         0         0         0         0         
2      717       734       29513     189       131       0         0         0         0         0         
1      197       408       29513     178       299       0         0         0         0         0         
1      992       925       29513     290       290       0         0         0         0         0         
1      812       627       29513     290       189       0         0         0         0         0         
1      1066      1206      29514     291       192       0         0         0         0         0         
1      669       408       29514     280       299       0         0         0         0         0         
1      527       421       29514     52        168       0         0         0         0         0         
1      624       333       29514     189       119       0         0         0         0         0         
2      134       48        29514     9         98        0         0         0         0         0         
1      694       488       29514     189       199       0         0         0         0         0         
1      463       984       29514     168       291       0         0         0         0         0         
1      504       439       29514     52        189       0         0         0         0         0         
1      771       511       29514     290       199       0         0         0         0         0         
1      718       238       29514     189       87        0         0         0         0         0         
1      504       117       29514     52        286       0         0         0         0         0         
2      883       836       29514     290       290       0         0         0         0         0         
3      883       836       29514     290       290       0         0         0         0         0         
3      328       600       29514     299       280       0         0         0         0         0         
3      328       600       29514     299       280       0         0         0         0         0         
2      668       813       29515     280       290       0         0         0         0         0         
3      668       813       29515     280       290       0         0         0         0         0         
1      907       815       29515     290       290       0         0         0         0         0         
1      606       78        29515     189       9         0         0         0         0         0         
1      666       152       29515     131       9         0         0         0         0         0         
1      693       409       29515     280       52        0         0         0         0         0         
1      990       669       29515     290       280       0         0         0         0         0         
1      417       134       29515     100       9         0         0         0         0         0         
1      737       937       29515     189       291       0         0         0         0         0         
1      801       1462      29515     291       296       0         0         0         0         0         
3      788       504       29516     290       52        0         0         0         0         0         
3      667       640       29516     131       131       0         0         0         0         0         
3      667       640       29516     131       131       0         0         0         0         0         
1      510       668       29516     199       280       0         0         0         0         0         
1      64        199       29516     98        178       0         0         0         0         0         
1      418       557       29517     168       189       0         0         0         0         0         
2      969       789       29517     290       290       0         0         0         0         0         
3      48        652       29517     98        189       0         0         0         0         0         
1      438       522       29517     100       52        0         0         0         0         0         
2      504       416       29517     52        100       0         0         0         0         0         
1      969       836       29518     290       290       0         0         0         0         0         
1      466       652       29518     199       189       0         0         0         0         0         
1      118       606       29518     286       189       0         0         0         0         0         
1      152       522       29518     9         52        0         0         0         0         0         
1      839       1012      29518     290       84        0         0         0         0         0         
2      663       669       29518     131       280       0         0         0         0         0         
3      968       949       29519     290       290       0         0         0         0         0         
3      968       949       29519     290       290       0         0         0         0         0         
1      768       836       29519     290       290       0         0         0         0         0         
1      512       20        29519     199       98        0         0         0         0         0         
1      250       417       29519     127       100       0         0         0         0         0         
